<number of tasks>
8

<cycle time>
20

<task times>
1 11
2 17
3 9
4 5
5 8
6 12
7 10
8 3

<precedence relations>
1,2
2,3
2,4
3,5
3,6
4,6
5,7
6,8

<setup times forward>
1,2:3
2,3:5
2,4:5
3,5:3
3,6:3
4,5:3
4,6:3
4,7:3
5,4:3
7,4:3

<setup times backward>
2,1:3
5,1:1
5,3:3
5,4:3
6,1:1
6,3:3
6,4:3
7,1:1
7,3:3
7,4:3
8,1:1
8,3:3
8,4:3

<end>

<optimal SALBP-1 value>
5


<rand seed>
467321153

